WARNING: for repeatability, setting FPU to use double precision
============================[ Problem Statistics ]=============================
|                                                                             |
|  Number of variables:           100                                         |
|  Number of clauses:             449                                         |
|  Parse time:                   0.00 s                                       |
|  Eliminated clauses:           0.00 Mb                                      |
|  Simplification time:          0.00 s                                       |
|                                                                             |
============================[ Search Statistics ]==============================
| Conflicts |          ORIGINAL         |          LEARNT          | Progress |
|           |    Vars  Clauses Literals |    Limit  Clauses Lit/Cl |          |
===============================================================================
|       100 |      98      447     1353 |      163      100      8 |  0.010 % |
|       250 |      98      447     1353 |      180      164      6 |  0.010 % |
===============================================================================
restarts              : 3
conflicts             : 382            (126658 /sec)
decisions             : 464            (0.00 % random) (153846 /sec)
propagations          : 8737           (2896883 /sec)
conflict literals     : 2375           (21.93 % deleted)
Memory used           : 13.00 MB
CPU time              : 0.003016 s

SATISFIABLE
